\ LP format - for model browsing. Use MPS format to capture full model detail.
Minimize
  0 C2(0) + 0 C3(0) + 0 C4(0) + 0 C5(0) + 0 C6(0) + 0 C7(0) + 0 C8(0)
   + 0 C9(0) + 0 C10(0) + 0 C11(0) + 0 C12(0) + 0 C13(0) + 0 C14(0)
   + 0 C15(0) + 0 C16(0) + 0 C17(0) + 0 C18(0) + 0 C19(0) + 0 C20(0)
   + 0 C21(0) + 0 C22(0) + 0 C23(0) + 0 C24(0) + 0 C25(0) + 0 C26(0)
   + 0 C27(0) + 0 C28(0) + 0 C29(0) + 0 C30(0) + 0 C31(0) + 0 C36(0)
   + 0 C37(0) + 0 C38(0) + 0 C39(0) + 0 C40(0) + 0 C41(0) + 0 C42(0)
   + 0 C43(0) + 0 C44(0) + 0 C45(0) + 0 C46(0) + 0 C47(0) + 0 C48(0)
   + 0 C49(0) + 0 C50(0) + 0 C51(0) + 0 C52(0) + 0 C53(0) + 0 C54(0)
   + 0 C55(0) + 0 C56(0) + 0 C57(0) + 0 C58(0) + 0 C59(0) + 0 C60(0)
   + 0 C61(0) + 0 C66(0) + 0 C67(0) + 0 C68(0) + 0 C69(0) + 0 C70(0)
   + 0 C71(0) + 0 C72(0) + 0 C73(0) + 0 C74(0) + 0 C75(0) + 0 C76(0)
   + 0 C77(0) + 0 C78(0) + 0 C79(0) + 0 C80(0) + 0 C81(0) + 0 C82(0)
   + 0 C83(0) + 0 C84(0) + 0 C85(0) + 0 C86(0) + 0 C87(0) + 0 C88(0)
   + 0 C89(0) + 0 C90(0) + 0 C91(0) + 0 C92(0) + 0 C93(0) + 0 C94(0)
   + 0 C95(0) + 0 C100(0) + 0 C101(0) + 0 C102(0) + 0 C103(0) + 0 C104(0)
   + 0 C105(0) + 0 C106(0) + 0 C107(0) + 0 C108(0) + 0 C109(0) + 0 C110(0)
   + 0 C111(0) + 0 C112(0) + 0 C113(0) + 0 C114(0) + 0 C115(0) + 0 C116(0)
   + 0 C117(0) + 0 C118(0) + 0 C119(0) + 0 C120(0) + 0 C121(0) + 0 C122(0)
   + 0 C123(0) + 0 C124(0) + 0 C125(0) + 0 C126(0) + 0 C127(0) + 0 C128(0)
   + 0 C129(0) + 0 C130(0) + 0 C131(0) + 0 C136(0) + 0 C137(0) + 0 C138(0)
   + 0 C139(0) + 0 C140(0) + 0 C141(0) + 0 C142(0) + 0 C143(0) + 0 C144(0)
   + 0 C145(0) + 0 C146(0) + 0 C147(0) + 0 C148(0) + 0 C149(0) + 0 C150(0)
   + 0 C151(0) + 0 C152(0) + 0 C153(0) + 0 C154(0) + 0 C155(0) + 0 C156(0)
   + 0 C157(0) + 0 C158(0) + 0 C159(0) + 0 C160(0) + 0 C161(0) + 0 C162(0)
   + 0 C163(0) + 0 C164(0) + 0 C165(0) + 0 C168(0) + 0 C169(0) + 0 C170(0)
   + 0 C171(0) + 0 C172(0) + 0 C173(0) + 0 C174(0) + 0 C175(0) + 0 C176(0)
   + 0 C177(0) + 0 C178(0) + 0 C179(0) + 0 C180(0) + 0 C181(0) + 0 C182(0)
   + 0 C183(0) + 0 C184(0) + 0 C185(0) + 0 C186(0) + 0 C187(0) + 0 C188(0)
   + 0 C189(0) + 0 C190(0) + 0 C191(0) + 0 C192(0) + 0 C193(0) + 0 C194(0)
   + 0 C195(0) + 0 C196(0) + 0 C197(0) + 0 C198(0) + 0 C199(0) + 0 C200(0)
   + 0 C201(0) + 0 C202(0) + 0 C203(0) + 0 C204(0) + 0 C205(0) + 0 C206(0)
   + 0 C207(0) + 0 C208(0) + 0 C209(0) + 0 C210(0) + 0 C211(0) + 0 C212(0)
   + 0 C213(0) + 0 C214(0) + 0 C215(0) + 0 C216(0) + 0 C217(0) + 0 C218(0)
   + 0 C219(0) + 0 C220(0) + 0 C221(0) + 0 C222(0) + 0 C223(0) + 0 C224(0)
   + 0 C225(0) + 0 C226(0) + 0 C227(0) + 0 C228(0) + 0 C229(0) + 0 C230(0)
   + 0 C231(0) + 0 C232(0) + 0 C233(0) + 0 C234(0) + 0 C235(0) + 0 C236(0)
   + 0 C237(0) + 0 C238(0) + 0 C239(0) + 0 C240(0) + 0 C241(0) + 0 C242(0)
   + 0 C243(0) + 0 C244(0) + 0 C245(0) + 0 C246(0) + 0 C247(0) + 0 C248(0)
   + 0 C249(0) + 0 C250(0) + 0 C251(0) + 0 C252(0) + 0 C253(0) + 0 C254(0)
   + 0 C255(0) + 0 C256(0) + 0 C257(0) + 0 C258(0) + 0 C259(0) + 0 C260(0)
   + 0 C261(0) + 0 C262(0) + 0 C263(0) + 0 C264(0) + 0 C265(0) + 0 C266(0)
   + 0 C267(0) + 0 C268(0) + 0 C269(0) + 0 C270(0) + 0 C271(0) + 0 C272(0)
   + 0 C273(0) + 0 C274(0) + 0 C275(0) + 0 C276(0) + 0 C277(0) + 0 C278(0)
   + 0 C279(0) + 0 C280(0) + 0 C281(0) + 0 C282(0) + 0 C283(0) + 0 C284(0)
   + 0 C285(0) + 0 C286(0) + 0 C287(0) + 0 C288(0) + 0 C289(0) + 0 C290(0)
   + 0 C291(0) + 0 C292(0) + 0 C293(0) + 0 C294(0) + 0 C295(0) + 0 C296(0)
   + 0 C297(0) + 0 C298(0) + 0 C299(0) + 0 C300(0) + 0 C301(0) + 0 C302(0)
   + 0 C303(0) + 0 C304(0) + 0 C305(0) + 0 C306(0) + 0 C307(0) + 0 C308(0)
   + 0 C309(0) + 0 C310(0) + 0 C311(0) + 0 C312(0) + 0 C313(0) + 0 C314(0)
   + 0 C315(0) + 0 B316(0) + 0 B317(0) + 0 B318(0) + 0 B319(0) + 0 B320(0)
   + 0 B321(0) + 0 B322(0) + 0 B323(0) + 0 B324(0) + 0 B325(0) + 0 B326(0)
   + 0 B327(0) + 0 B328(0) + 0 B329(0) + 0 B330(0) + 0 B331(0) + 0 B332(0)
   + 0 B333(0) + 0 B334(0) + 0 B335(0) + 0 B336(0) + 0 B337(0) + 0 B338(0)
   + 0 B339(0) + 0 B340(0) + 0 B341(0) + 0 B342(0) + 0 B343(0) + 0 B344(0)
   + 0 B345(0) + 0 B346(0) + 0 B347(0) + 0 B348(0) + 0 B349(0) + 0 B350(0)
   + 0 B351(0) + 0 B352(0) + 0 B353(0) + 0 B354(0) + 0 B355(0) + 0 B356(0)
   + 0 B357(0) + 0 B358(0) + 0 B359(0) + 0 B360(0) + 0 B361(0) + 0 B362(0)
   + 0 B363(0) + 0 B364(0) + 0 B365(0) + 0 B366(0) + 0 B367(0) + 0 B368(0)
   + 0 B369(0) + 0 B370(0) + 0 B371(0) + 0 B372(0) + 0 B373(0) + 0 B374(0)
   + 0 B375(0) + 0 B376(0) + 0 B377(0) + 0 B378(0) + 0 B379(0) + 0 B380(0)
   + 0 B381(0) + 0 B382(0) + 0 B383(0) + 0 B384(0) + 0 B385(0) + 0 B386(0)
   + 0 B387(0) + 0 B388(0) + 0 B389(0) + 0 B390(0) + 0 B391(0) + 0 B392(0)
   + 0 B393(0) + 0 B394(0) + 0 B395(0) + 0 B396(0) + 0 B397(0) + 0 B398(0)
   + 0 B399(0) + 0 B400(0) + 0 B401(0) + 0 B402(0) + 0 B403(0) + 0 B404(0)
   + 0 B405(0) + 0 B406(0) + 0 B407(0) + 0 B408(0) + 0 B409(0) + 0 B410(0)
   + 0 B411(0) + 0 B412(0) + 0 B413(0) + 0 B414(0) + 0 B415(0) + 0 B416(0)
   + 0 B417(0) + 0 B418(0) + 0 B419(0) + 0 B420(0) + 0 B421(0) + 0 B422(0)
   + 0 B423(0) + 0 B424(0) + 0 B425(0) + 0 B426(0) + 0 B427(0) + 0 B428(0)
   + 0 B429(0) + 0 B430(0) + 0 B431(0) + 0 B432(0) + 0 B433(0) + 0 B434(0)
   + 0 B435(0) + 0 B436(0) + 0 B437(0) + 0 B438(0) + 0 B439(0) + 0 B440(0)
   + 0 B441(0) + 0 B442(0) + 0 B443(0) + 0 B444(0) + 0 B445(0) + 0 B446(0)
   + 0 B447(0) + 0 B448(0) + 0 B449(0) + 0 B450(0) + 0 B451(0) + 0 B452(0)
   + 0 B453(0) + 0 B454(0) + 0 B455(0) + 0 B456(0) + 0 B457(0) + 0 B458(0)
   + 0 B459(0) + 0 B460(0) + 0 B461(0) + 0 B462(0) + 0 B463(0) + 0 I464(0)
   + 0 I465(0) + 0 I466(0) + 0 I467(0) + 0 B468(0) + 0 B469(0) + 0 C470(0)
   + 0 C471(0) + 0 C472(0) + 0 C473(0) + 0 C474(0) + 0 C475(0) + 0 C476(0)
   + 0 B477(0) + 0 B478(0) + 0 B479(0) + 0 B480(0)
Subject To
 c0: C0(1) = 40
 c1: C1(1) = 20
 c2: C34(1) = 40
 c3: C35(1) = 20
 c4: C64(1) = 40
 c5: C65(1) = 20
 c6: C98(1) = 40
 c7: C99(1) = 20
 c8: C134(1) = 40
 c9: C135(1) = 20
 c10: C32(1) = 20
 c11: C33(1) = 10
 c12: C62(1) = 20
 c13: C63(1) = 10
 c14: C96(1) = 20
 c15: C97(1) = 10
 c16: C132(1) = 20
 c17: C133(1) = 10
 c18: C166(1) = 20
 c19: C167(1) = 10
Bounds
Binaries
 B316(0) B317(0) B318(0) B319(0) B320(0) B321(0) B322(0) B323(0) B324(0)
 B325(0) B326(0) B327(0) B328(0) B329(0) B330(0) B331(0) B332(0) B333(0)
 B334(0) B335(0) B336(0) B337(0) B338(0) B339(0) B340(0) B341(0) B342(0)
 B343(0) B344(0) B345(0) B346(0) B347(0) B348(0) B349(0) B350(0) B351(0)
 B352(0) B353(0) B354(0) B355(0) B356(0) B357(0) B358(0) B359(0) B360(0)
 B361(0) B362(0) B363(0) B364(0) B365(0) B366(0) B367(0) B368(0) B369(0)
 B370(0) B371(0) B372(0) B373(0) B374(0) B375(0) B376(0) B377(0) B378(0)
 B379(0) B380(0) B381(0) B382(0) B383(0) B384(0) B385(0) B386(0) B387(0)
 B388(0) B389(0) B390(0) B391(0) B392(0) B393(0) B394(0) B395(0) B396(0)
 B397(0) B398(0) B399(0) B400(0) B401(0) B402(0) B403(0) B404(0) B405(0)
 B406(0) B407(0) B408(0) B409(0) B410(0) B411(0) B412(0) B413(0) B414(0)
 B415(0) B416(0) B417(0) B418(0) B419(0) B420(0) B421(0) B422(0) B423(0)
 B424(0) B425(0) B426(0) B427(0) B428(0) B429(0) B430(0) B431(0) B432(0)
 B433(0) B434(0) B435(0) B436(0) B437(0) B438(0) B439(0) B440(0) B441(0)
 B442(0) B443(0) B444(0) B445(0) B446(0) B447(0) B448(0) B449(0) B450(0)
 B451(0) B452(0) B453(0) B454(0) B455(0) B456(0) B457(0) B458(0) B459(0)
 B460(0) B461(0) B462(0) B463(0) B468(0) B469(0) B477(0) B478(0) B479(0)
 B480(0)
Generals
 I464(0) I465(0) I466(0) I467(0)
End
